NAME: rand_0/map1_180
TYPE: TSP
COMMENT: autogenerated using a wonderful map creator
DIMENSION: 210
EDGE_WEIGHT_TYPE: EUC_2D
NODE_COORD_SECTION
1 38.0 3.0
2 62.0 11.0
3 40.0 5.0
4 62.0 22.0
5 47.0 61.0
6 62.0 25.0
7 63.0 14.0
8 33.0 1.0
9 41.0 1.0
10 49.0 62.0
11 35.0 5.0
12 35.0 1.0
13 2.0 15.0
14 2.0 10.0
15 62.0 16.0
16 39.0 3.0
17 35.0 2.0
18 34.0 3.0
19 37.0 61.0
20 34.0 61.0
21 63.0 24.0
22 1.0 10.0
23 62.0 15.0
24 38.0 5.0
25 63.0 15.0
26 61.0 11.0
27 63.0 31.0
28 43.0 61.0
29 42.0 3.0
30 41.0 61.0
31 42.0 2.0
32 63.0 19.0
33 36.0 3.0
34 1.0 11.0
35 1.0 15.0
36 62.0 26.0
37 63.0 22.0
38 1.0 20.0
39 61.0 23.0
40 37.0 62.0
41 45.0 61.0
42 36.0 62.0
43 36.0 1.0
44 61.0 15.0
45 41.0 2.0
46 40.0 62.0
47 61.0 29.0
48 61.0 13.0
49 1.0 9.0
50 38.0 1.0
51 61.0 27.0
52 44.0 61.0
53 42.0 4.0
54 38.0 63.0
55 1.0 18.0
56 61.0 20.0
57 61.0 26.0
58 35.0 62.0
59 46.0 63.0
60 63.0 30.0
61 38.0 23.0
62 56.0 1.0
63 52.0 49.0
64 47.0 7.0
65 33.0 54.0
66 48.0 36.0
67 11.0 51.0
68 29.0 32.0
69 30.0 18.0
70 21.0 37.0
71 38.0 53.0
72 63.0 52.0
73 54.0 49.0
74 24.0 8.0
75 3.0 40.0
76 61.0 36.0
77 44.0 29.0
78 6.0 20.0
79 30.0 39.0
80 10.0 36.0
81 13.0 35.0
82 59.0 57.0
83 1.0 42.0
84 20.0 22.0
85 17.0 23.0
86 37.0 35.0
87 29.0 52.0
88 40.0 52.0
89 23.0 45.0
90 49.0 9.0
91 15.0 7.0
92 24.0 19.0
93 49.0 18.0
94 10.0 29.0
95 17.0 44.0
96 30.0 50.0
97 36.0 11.0
98 19.0 59.0
99 50.0 13.0
100 37.0 28.0
101 12.0 47.0
102 27.0 29.0
103 18.0 60.0
104 26.0 18.0
105 19.0 34.0
106 47.0 50.0
107 33.0 33.0
108 53.0 11.0
109 30.0 43.0
110 48.0 24.0
111 27.0 56.0
112 44.0 51.0
113 1.0 46.0
114 47.0 13.0
115 12.0 13.0
116 34.0 25.0
117 21.0 25.0
118 43.0 9.0
119 13.0 60.0
120 50.0 24.0
121 26.0 2.0
122 43.0 18.0
123 3.0 37.0
124 44.0 26.0
125 13.0 23.0
126 27.0 40.0
127 22.0 62.0
128 19.0 63.0
129 40.0 31.0
130 15.0 41.0
131 31.0 37.0
132 7.0 46.0
133 32.0 11.0
134 23.0 42.0
135 42.0 13.0
136 10.0 17.0
137 24.0 25.0
138 10.0 35.0
139 40.0 15.0
140 32.0 41.0
141 29.0 33.0
142 26.0 43.0
143 14.0 23.0
144 6.0 49.0
145 44.0 12.0
146 57.0 15.0
147 53.0 8.0
148 42.0 42.0
149 29.0 17.0
150 31.0 14.0
151 60.0 59.0
152 57.0 42.0
153 21.0 22.0
154 46.0 51.0
155 16.0 44.0
156 49.0 56.0
157 23.0 37.0
158 19.0 15.0
159 61.0 39.0
160 23.0 3.0
161 4.0 63.0
162 41.0 57.0
163 58.0 18.0
164 13.0 50.0
165 26.0 47.0
166 42.0 10.0
167 50.0 23.0
168 13.0 4.0
169 2.0 1.0
170 17.0 20.0
171 10.0 14.0
172 27.0 30.0
173 37.0 32.0
174 34.0 45.0
175 60.0 45.0
176 14.0 57.0
177 39.0 22.0
178 29.0 21.0
179 12.0 14.0
180 58.0 11.0
181 18.0 36.0
182 45.0 20.0
183 13.0 52.0
184 25.0 51.0
185 34.0 20.0
186 24.0 52.0
187 28.0 13.0
188 25.0 5.0
189 47.0 35.0
190 33.0 18.0
191 63.0 53.0
192 25.0 14.0
193 19.0 28.0
194 9.0 36.0
195 17.0 49.0
196 28.0 49.0
197 51.0 44.0
198 22.0 8.0
199 24.0 27.0
200 41.0 52.0
201 18.0 29.0
202 24.0 45.0
203 28.0 6.0
204 36.0 28.0
205 16.0 59.0
206 30.0 21.0
207 53.0 53.0
208 29.0 53.0
209 28.0 42.0
210 22.0 1.0
211 50.0 39.0
212 40.0 16.0
213 52.0 45.0
214 59.0 60.0
215 21.0 21.0
216 41.0 54.0
217 50.0 2.0
218 16.0 34.0
219 17.0 8.0
220 46.0 53.0
221 54.0 36.0
222 53.0 46.0
223 40.0 46.0
224 20.0 43.0
225 54.0 54.0
226 63.0 2.0
227 40.0 9.0
228 58.0 63.0
229 24.0 40.0
230 13.0 40.0
231 4.0 16.0
232 9.0 6.0
233 54.0 38.0
234 17.0 19.0
235 36.0 32.0
236 25.0 2.0
237 39.0 58.0
238 11.0 21.0
239 29.0 57.0
240 24.0 24.0
START_DEPOT_SECTION
1
2
3
4
5
6
7
8
9
10
11
12
13
14
15
16
17
18
19
20
21
22
23
24
25
26
27
28
29
30
-1
END_DEPOT_SECTION
31
32
33
34
35
36
37
38
39
40
41
42
43
44
45
46
47
48
49
50
51
52
53
54
55
56
57
58
59
60
-1
EOF
